\ This file has been generated by DOcplex
\ ENCODING=ISO-8859-1
\Problem name: {self.PROBLEM.name} zerosum SOTA problem

Maximize
 obj: V
Subject To
 c1: V - 124.715439341372 a0_0 - 176.049485572181 a0_1 - 176.049485572181 a0_2
      <= 0
 c2: V - 176.049485572181 a0_0 - 151.810680905083 a0_1 - 209.883857535911 a0_2
      <= 0
 c3: V - 176.049485572181 a0_0 - 209.883857535911 a0_1 - 151.810680905083 a0_2
      <= 0
 c4: a0_0 + a0_1 + a0_2 = 1

Bounds
       a0_0 <= 1
       a0_1 <= 1
       a0_2 <= 1
       V Free
End
